letting n =  10
letting blocks =  [[1, 4], [1, 5], [2, 2], [2, 4], [2, 5], [3, 4], [3, 6], [3, 8], [4, 2], [4, 6], [4, 8], [5, 1], [6, 1], [6, 5], [7, 4], [7, 5], [7, 7], [7, 10], [8, 3], [8, 6], [8, 9], [8, 10], [9, 4], [9, 8], [10, 1], [10, 4]]
